p cnf 18 24
3 5 7 11 17 -13 -6 -4 0
3 5 9 11 13 15 -6 -4 0
1 3 9 13 -16 -14 -12 -10 0
1 3 5 7 13 15 -8 -4 0
1 5 9 11 13 15 17 -14 0
1 3 5 9 -18 -12 -8 -6 0
5 7 -18 15 -14 -8 -6 -1 0
7 9 13 15 17 -8 -4 -2 0
1 5 9 11 13 -14 -6 -2 0
-10 15 0
-16 11 0
17 -18 0
8 9 0
2 -1 0
-3 -2 0
-13 14 0
-7 11 -10 0
8 -18 0
11 -1 0
4 0
-5 0
6 0
-16 1 -12 -2 0
9 -16 17 -14 -6 0
